Route #1: 6 33 63 23 56 41 43 42 64 22 62 1 73
Route #2: 75 68 2 74 28 61 21 47 48 30
Route #3: 4 45 29 5 36 69 71 60 70 20 37 15 57 27
Route #4: 67 34 52 13 54 19 35 8 46
Route #5: 26 38 65 11 66 59 14 53 7
Route #6: 51 16 49 24 18 50 25 55 31 10 58 72 12
Route #7: 40 39 9 32 44 3 17
Cost 689
Time 0.104977
